-28 26 -30 0
28 26 0
d 28 1 26 0
26 -30 0
d -28 26 -30 0
-26 -30 0
d -27 -26 -30 0
-30 0
27 -26 0
-27 -26 0
d -12 -27 -26 0
-26 0
23 0
29 0
27 0
28 0
-13 0
-15 0
-9 0
-3 0
-4 0
-2 0
-14 0
10 0
16 0
12 0
18 0
6 0
1 0
7 0
5 0
11 0
17 0
-24 0
-25 0
-20 0
-21 0
-19 0
0
